NAME : traveling-santa-2018-prime-paths.28563.tour
COMMENT : Length = 28563
COMMENT : Found by LKH [Keld Helsgaun] Sun Jun 12 19:59:45 2022
TYPE : TOUR
DIMENSION : 100
TOUR_SECTION
1
44
73
30
98
96
11
72
80
61
52
39
58
33
26
57
63
34
47
16
21
70
55
28
81
41
92
86
56
65
89
54
87
42
68
60
5
67
37
91
53
27
15
12
62
45
69
19
20
76
7
35
75
94
88
4
90
95
71
99
84
59
32
43
38
50
13
31
10
97
9
17
25
18
2
22
64
3
8
74
51
36
85
40
93
66
49
29
77
48
14
23
100
46
78
82
24
79
6
83
-1
EOF
